NAME : CMT12X.662221.tour
COMMENT : Cost = 0_662221
COMMENT : Found by LKH [Keld Helsgaun] Thu Sep 14 23:19:09 2017
TYPE : TOUR
DIMENSION : 105
TOUR_SECTION
1
70
67
69
41
42
43
44
48
50
47
45
46
49
52
51
53
32
36
38
39
40
37
35
34
33
102
91
88
87
90
89
86
85
84
83
82
79
77
72
71
74
78
80
81
73
104
68
66
64
75
63
62
65
56
55
54
57
59
61
60
58
105
92
99
97
96
95
93
94
98
101
100
13
15
17
16
20
19
18
14
103
76
2
3
5
4
6
8
7
10
9
12
11
24
27
29
31
30
28
26
25
23
22
21
-1
EOF
